50
56 504 87 29 56 224 232 58 56 58 261 560 203 58 448 87 116 29 87 280 261 29 168 145 56 392 448 29 280 336 116 504 145 112 168 87 261 174 280 280 145 392 203 29 29 336 560 174 145 112 
156 1404 387 129 156 624 1032 258 156 258 1161 1560 903 258 1248 387 516 129 387 780 1161 129 468 645 156 1092 1248 129 780 936 516 1404 645 312 468 387 1161 774 780 780 645 1092 903 129 129 936 1560 774 645 312 
4893
